NAME : lr105.1377110.tour
COMMENT : Cost = 0_1377110
COMMENT : Found by LKH [Keld Helsgaun] Fri Sep 15 17:42:01 2017
TYPE : TOUR
DIMENSION : 120
TOUR_SECTION
1
28
70
77
41
54
27
108
96
93
99
100
95
7
97
107
112
48
37
20
50
47
49
120
46
103
84
83
9
19
118
64
65
12
91
11
33
105
71
114
34
66
106
72
10
67
21
2
115
73
40
24
68
56
55
5
26
116
60
6
62
17
86
85
18
61
90
104
109
22
74
76
23
42
57
75
59
111
29
13
30
80
4
51
69
102
25
81
117
43
15
45
39
87
38
98
14
113
3
16
58
88
44
101
92
94
119
32
31
52
82
79
35
36
78
110
53
63
89
8
-1
EOF
